N = 25;

nGoals = 2;

T = array1d(1..25, [{17, 18, 5, 1}, {10, 2, 13, 22}, {24, 3, 12}, {25, 4,
    20, 9}, {1, 5, 10, 13}, {18, 11, 14, 23}, {16, 15, 7}, {16, 11,
    15, 23}, {9, 4, 17}, {18, 2, 5, 14}, {8, 25, 20, 6}, {3, 19, 12,
    22}, {13, 2, 5}, {10, 19, 6, 22}, {8, 15, 21, 7}, {16, 8, 20, 7},
    {9, 25, 1, 17}, {25, 10, 1, 6}, {24, 12, 14, 23}, {16, 11, 20, 4},
    {24, 23, 21, 15}, {2, 12, 14, 22}, {8, 19, 21, 6}, {19, 24, 3,
    21}, {17, 18, 11, 4}]);

G = array1d(1..2, [1, 4]);

K = 1;

L = 0;

